&CONTROL
  calculation  = 'scf',
  prefix       = "o2",
  pseudo_dir   = "../pseudo",
  outdir       = "./tempdir",
/
&SYSTEM
  ibrav     = 0,
  nat       = 2,
  ntyp      = 1,
  ecutwfc   = 50,
  ecutrho   = 400,
  nspin     = 2,
  starting_magnetization(1) = 0.5,
  occupations = 'smearing', degauss = 0.001
/
&ELECTRONS
  conv_thr    = 1.0e-7,
  mixing_beta = 0.7,
/
&IONS
/
CELL_PARAMETERS {angstrom}
10.0  0.0  0.0
 0.0 10.0  0.0
 0.0  0.0 10.0
ATOMIC_SPECIES
O  15.9994  O.pbe-n-kjpaw_psl.1.0.0.UPF
ATOMIC_POSITIONS {angstrom}
O  1.170  0.0  0.0
O 0.000  0.0  0.0  0 0 0
K_POINTS {Gamma}
