&CONTROL
  calculation  = 'scf',
  prefix       = "cl2",
  pseudo_dir   = "../pseudo",
  outdir       = "./tempdir",
/
&SYSTEM
  ibrav     = 0,
  nat       = 2,
  ntyp      = 1,
  ecutwfc   = 24,
  ecutrho   = 144,
/
&ELECTRONS
  conv_thr    = 1.0e-7,
  mixing_beta = 0.7,
/
&IONS
/
CELL_PARAMETERS {angstrom}
10.0  0.0  0.0
 0.0 10.0  0.0
 0.0  0.0 10.0
ATOMIC_SPECIES
Cl 35.453 Cl.pbe-n-kjpaw_psl.1.0.0.UPF
ATOMIC_POSITIONS {angstrom}
Cl  1.970  0.0  0.0
Cl 0.000  0.0  0.0  0 0 0
K_POINTS {Gamma}
