&BANDS
  prefix = 'silicon'
  outdir = './tempdir'
  filband = 'Si-bands.dat'
/
